(set-logic ALL)
(declare-fun var0 () String)
(assert (str.in_re var0 (re.++ (re.union (re.* (str.to_re "0")) (re.* (str.to_re "11"))) (re.++ (re.+ (re.+ (str.to_re "222"))) (re.++ (re.+ (re.* (str.to_re "3"))) (re.++ (re.union (re.* (str.to_re "44")) (re.* (str.to_re "55"))) (re.++ (re.* (re.* (str.to_re "6"))) (re.++ (re.+ (re.* (str.to_re "7"))) (re.++ (re.+ (re.* (str.to_re "888"))) (re.++ (re.+ (re.* (str.to_re "9"))) (re.++ (re.+ (re.+ (str.to_re "aaa"))) (re.++ (re.+ (re.+ (str.to_re "b"))) (re.++ (re.* (re.union (str.to_re "c") (str.to_re "dd"))) (re.++ (re.* (re.union (str.to_re "ee") (str.to_re "fff"))) (re.++ (re.union (re.union (str.to_re "ggg") (str.to_re "h")) (re.union (str.to_re "i") (str.to_re "j"))) (re.++ (re.union (re.+ (str.to_re "kkk")) (re.+ (str.to_re "lll"))) (re.++ (re.+ (re.union (str.to_re "mmm") (str.to_re "nn"))) (re.++ (re.+ (re.* (str.to_re "oo"))) (re.++ (re.* (re.+ (str.to_re "pp"))) (re.++ (re.union (re.* (str.to_re "qq")) (re.* (str.to_re "rrr"))) (re.++ (re.* (re.union (str.to_re "ss") (str.to_re "tt"))) (re.++ (re.+ (re.* (str.to_re "uuu"))) (re.++ (re.union (re.+ (str.to_re "v")) (re.+ (str.to_re "w"))) (re.++ (re.union (re.* (str.to_re "xx")) (re.* (str.to_re "yy"))) (re.++ (re.* (re.+ (str.to_re "zzz"))) (re.++ (re.+ (re.union (str.to_re "A") (str.to_re "BB"))) (re.++ (re.union (re.* (str.to_re "CCC")) (re.* (str.to_re "D"))) (re.++ (re.+ (re.+ (str.to_re "EEE"))) (re.++ (re.* (re.union (str.to_re "F") (str.to_re "G"))) (re.++ (re.+ (re.* (str.to_re "H"))) (re.++ (re.union (re.* (str.to_re "I")) (re.* (str.to_re "JJ"))) (re.++ (re.+ (re.* (str.to_re "KKK"))) (re.++ (re.* (re.* (str.to_re "LL"))) (re.++ (re.union (re.union (str.to_re "MMM") (str.to_re "NNN")) (re.union (str.to_re "OOO") (str.to_re "PPP"))) (re.++ (re.* (re.* (str.to_re "QQQ"))) (re.++ (re.* (re.+ (str.to_re "R"))) (re.++ (re.* (re.* (str.to_re "SSS"))) (re.++ (re.union (re.* (str.to_re "TT")) (re.* (str.to_re "UUU"))) (re.++ (re.union (re.+ (str.to_re "VVV")) (re.+ (str.to_re "WWW"))) (re.++ (re.union (re.* (str.to_re "X")) (re.* (str.to_re "YYY"))) (re.++ (re.* (re.union (str.to_re "ZZZ") (str.to_re "!!"))) (re.++ (re.+ (re.union (str.to_re """""""") (str.to_re "#"))) (re.++ (re.+ (re.union (str.to_re "$$$") (str.to_re "%%"))) (re.++ (re.union (re.union (str.to_re "&&") (str.to_re "'''")) (re.union (str.to_re "((") (str.to_re "))"))) (re.++ (re.union (re.union (str.to_re "**") (str.to_re "+")) (re.union (str.to_re ",,,") (str.to_re "--"))) (re.++ (re.* (re.* (str.to_re "."))) (re.++ (re.* (re.union (str.to_re "//") (str.to_re ":"))) (re.++ (re.* (re.* (str.to_re ";;;"))) (re.++ (re.* (re.union (str.to_re "<") (str.to_re "=="))) (re.++ (re.* (re.union (str.to_re ">>>") (str.to_re "?"))) (re.++ (re.+ (re.union (str.to_re "@") (str.to_re "[[["))) (re.++ (re.union (re.+ (str.to_re "\\")) (re.+ (str.to_re "]]]"))) (re.++ (re.* (re.+ (str.to_re "^^"))) (re.++ (re.union (re.+ (str.to_re "__")) (re.+ (str.to_re "```"))) (re.++ (re.union (re.* (str.to_re "{{{")) (re.* (str.to_re "|||"))) (re.++ (re.* (re.* (str.to_re "}}}"))) (re.++ (re.union (re.+ (str.to_re "~~")) (re.+ (str.to_re "000"))) (re.++ (re.union (re.+ (str.to_re "111")) (re.+ (str.to_re "222"))) (re.++ (re.* (re.union (str.to_re "333") (str.to_re "4"))) (re.++ (re.* (re.+ (str.to_re "5"))) (re.++ (re.union (re.* (str.to_re "666")) (re.* (str.to_re "77"))) (re.++ (re.* (re.+ (str.to_re "888"))) (re.++ (re.+ (re.+ (str.to_re "99"))) (re.++ (re.* (re.+ (str.to_re "aaa"))) (re.++ (re.union (re.+ (str.to_re "b")) (re.+ (str.to_re "c"))) (re.++ (re.* (re.* (str.to_re "dd"))) (re.++ (re.* (re.union (str.to_re "eee") (str.to_re "ff"))) (re.++ (re.union (re.* (str.to_re "gg")) (re.* (str.to_re "h"))) (re.++ (re.* (re.* (str.to_re "ii"))) (re.++ (re.union (re.+ (str.to_re "j")) (re.+ (str.to_re "k"))) (re.++ (re.+ (re.+ (str.to_re "l"))) (re.++ (re.* (re.union (str.to_re "mm") (str.to_re "n"))) (re.++ (re.+ (re.* (str.to_re "o"))) (re.++ (re.union (re.union (str.to_re "ppp") (str.to_re "qqq")) (re.union (str.to_re "r") (str.to_re "ss"))) (re.++ (re.+ (re.* (str.to_re "tt"))) (re.++ (re.union (re.* (str.to_re "uuu")) (re.* (str.to_re "v"))) (re.++ (re.union (re.+ (str.to_re "ww")) (re.+ (str.to_re "xxx"))) (re.++ (re.union (re.+ (str.to_re "yy")) (re.+ (str.to_re "zz"))) (re.++ (re.union (re.+ (str.to_re "AA")) (re.+ (str.to_re "BBB"))) (re.++ (re.* (re.union (str.to_re "C") (str.to_re "DDD"))) (re.++ (re.+ (re.union (str.to_re "E") (str.to_re "FF"))) (re.++ (re.+ (re.union (str.to_re "G") (str.to_re "HH"))) (re.++ (re.union (re.+ (str.to_re "III")) (re.+ (str.to_re "J"))) (re.++ (re.* (re.union (str.to_re "KKK") (str.to_re "LL"))) (re.++ (re.union (re.+ (str.to_re "MMM")) (re.+ (str.to_re "NN"))) (re.++ (re.+ (re.union (str.to_re "OOO") (str.to_re "PP"))) (re.++ (re.union (re.+ (str.to_re "QQ")) (re.+ (str.to_re "RR"))) (re.++ (re.union (re.union (str.to_re "S") (str.to_re "TTT")) (re.union (str.to_re "UUU") (str.to_re "VV"))) (re.++ (re.+ (re.+ (str.to_re "W"))) (re.++ (re.+ (re.union (str.to_re "X") (str.to_re "Y"))) (re.++ (re.+ (re.+ (str.to_re "Z"))) (re.++ (re.union (re.+ (str.to_re "!")) (re.+ (str.to_re """"))) (re.++ (re.+ (re.* (str.to_re "###"))) (re.++ (re.union (re.union (str.to_re "$$") (str.to_re "%")) (re.union (str.to_re "&") (str.to_re "'''"))) (re.++ (re.* (re.* (str.to_re "("))) (re.++ (re.+ (re.union (str.to_re "))") (str.to_re "*"))) (re.++ (re.+ (re.+ (str.to_re "+"))) (re.++ (re.union (re.union (str.to_re ",,") (str.to_re "--")) (re.union (str.to_re ".") (str.to_re "//"))) (re.++ (re.* (re.+ (str.to_re "::"))) (re.++ (re.* (re.* (str.to_re ";;"))) (re.++ (re.union (re.+ (str.to_re "<<")) (re.+ (str.to_re "==="))) (re.++ (re.* (re.+ (str.to_re ">"))) (re.++ (re.union (re.+ (str.to_re "?")) (re.+ (str.to_re "@@"))) (re.++ (re.* (re.+ (str.to_re "[["))) (re.++ (re.+ (re.* (str.to_re "\\"))) (re.++ (re.+ (re.* (str.to_re "]]"))) (re.++ (re.* (re.union (str.to_re "^") (str.to_re "_"))) (re.++ (re.* (re.* (str.to_re "```"))) (re.++ (re.+ (re.union (str.to_re "{{{") (str.to_re "||"))) (re.++ (re.union (re.union (str.to_re "}}}") (str.to_re "~")) (re.union (str.to_re "000") (str.to_re "1"))) (re.++ (re.+ (re.+ (str.to_re "2"))) (re.++ (re.+ (re.+ (str.to_re "333"))) (re.++ (re.* (re.* (str.to_re "44"))) (re.++ (re.union (re.* (str.to_re "55")) (re.* (str.to_re "66"))) (re.++ (re.union (re.+ (str.to_re "7")) (re.+ (str.to_re "8"))) (re.++ (re.union (re.union (str.to_re "999") (str.to_re "aaa")) (re.union (str.to_re "b") (str.to_re "ccc"))) (re.++ (re.union (re.+ (str.to_re "ddd")) (re.+ (str.to_re "e"))) (re.++ (re.* (re.+ (str.to_re "ff"))) (re.++ (re.* (re.* (str.to_re "g"))) (re.++ (re.union (re.union (str.to_re "hh") (str.to_re "i")) (re.union (str.to_re "j") (str.to_re "kkk"))) (re.++ (re.* (re.union (str.to_re "ll") (str.to_re "m"))) (re.++ (re.+ (re.+ (str.to_re "nn"))) (re.++ (re.+ (re.union (str.to_re "oo") (str.to_re "pp"))) (re.++ (re.+ (re.+ (str.to_re "qq"))) (re.++ (re.* (re.* (str.to_re "r"))) (re.++ (re.+ (re.* (str.to_re "s"))) (re.++ (re.+ (re.* (str.to_re "tt"))) (re.++ (re.+ (re.* (str.to_re "uu"))) (re.++ (re.+ (re.union (str.to_re "vv") (str.to_re "w"))) (re.++ (re.union (re.+ (str.to_re "xx")) (re.+ (str.to_re "yyy"))) (re.++ (re.union (re.+ (str.to_re "z")) (re.+ (str.to_re "A"))) (re.++ (re.* (re.+ (str.to_re "B"))) (re.++ (re.+ (re.* (str.to_re "C"))) (re.++ (re.union (re.+ (str.to_re "D")) (re.+ (str.to_re "E"))) (re.++ (re.+ (re.* (str.to_re "FFF"))) (re.++ (re.+ (re.union (str.to_re "GG") (str.to_re "HHH"))) (re.++ (re.* (re.union (str.to_re "II") (str.to_re "JJJ"))) (re.++ (re.+ (re.union (str.to_re "KK") (str.to_re "L"))) (re.++ (re.* (re.* (str.to_re "MM"))) (re.++ (re.union (re.union (str.to_re "NNN") (str.to_re "OOO")) (re.union (str.to_re "PPP") (str.to_re "Q"))) (re.++ (re.union (re.union (str.to_re "R") (str.to_re "SSS")) (re.union (str.to_re "T") (str.to_re "UUU"))) (re.++ (re.union (re.union (str.to_re "V") (str.to_re "WWW")) (re.union (str.to_re "XXX") (str.to_re "Y"))) (re.++ (re.* (re.+ (str.to_re "ZZ"))) (re.++ (re.union (re.+ (str.to_re "!")) (re.+ (str.to_re """"""))) (re.++ (re.* (re.* (str.to_re "#"))) (re.++ (re.* (re.+ (str.to_re "$$"))) (re.++ (re.union (re.union (str.to_re "%") (str.to_re "&&")) (re.union (str.to_re "'") (str.to_re "(("))) (re.++ (re.union (re.* (str.to_re ")")) (re.* (str.to_re "*"))) (re.++ (re.+ (re.+ (str.to_re "+++"))) (re.+ (re.+ (str.to_re ",,,"))))))))))))))))))))))))))))))))))))))))))))))))))))))))))))))))))))))))))))))))))))))))))))))))))))))))))))))))))))))))))))))))))))))))))))))))))))))))
(check-sat)